32      4       
13      14      13      12      
0       0       0       0       0       3       2       3       4       
3       0       10      0       0       3       6       7       21      
8       0       7       0       0       3       5       6       24      
7       2       0       0       0       3       5       13      30      
5       0       0       0       8       1       28      
9       10      0       0       0       3       8       11      19      
9       0       6       0       0       1       10      
6       0       3       0       0       3       9       12      18      
1       0       0       1       0       2       14      22      
3       0       0       10      0       3       16      17      19      
8       0       7       0       0       2       17      27      
7       0       0       6       0       1       25      
4       0       0       1       0       3       15      16      19      
9       0       0       0       3       1       25      
8       0       0       0       7       3       20      22      24      
6       6       0       0       0       2       18      24      
8       9       0       0       0       2       22      23      
9       0       3       0       0       2       29      31      
2       0       0       0       3       1       28      
8       0       0       9       0       1       21      
1       4       0       0       0       2       26      27      
6       1       0       0       0       2       26      29      
4       8       0       0       0       1       25      
6       0       0       0       9       2       27      31      
9       0       2       0       0       2       26      30      
3       0       2       0       0       1       28      
9       0       0       0       5       1       29      
9       0       9       0       0       1       31      
10      6       0       0       0       1       32      
9       8       0       0       0       1       32      
9       0       0       5       0       1       32      
0       0       0       0       0       0       